p cnf 275 2885
1 2 3 4 5 6 7 8 9 10 11 0
12 13 14 15 16 17 18 19 20 21 22 0
23 24 25 26 27 28 29 30 31 32 33 0
34 35 36 37 38 39 40 41 42 43 44 0
45 46 47 48 49 50 51 52 53 54 55 0
56 57 58 59 60 61 62 63 64 65 66 0
67 68 69 70 71 72 73 74 75 76 77 0
78 79 80 81 82 83 84 85 86 87 88 0
89 90 91 92 93 94 95 96 97 98 99 0
100 101 102 103 104 105 106 107 108 109 110 0
111 112 113 114 115 116 117 118 119 120 121 0
122 123 124 125 126 127 128 129 130 131 132 0
133 134 135 136 137 138 139 140 141 142 143 0
144 145 146 147 148 149 150 151 152 153 154 0
155 156 157 158 159 160 161 162 163 164 165 0
166 167 168 169 170 171 172 173 174 175 176 0
177 178 179 180 181 182 183 184 185 186 187 0
188 189 190 191 192 193 194 195 196 197 198 0
199 200 201 202 203 204 205 206 207 208 209 0
210 211 212 213 214 215 216 217 218 219 220 0
221 222 223 224 225 226 227 228 229 230 231 0
232 233 234 235 236 237 238 239 240 241 242 0
243 244 245 246 247 248 249 250 251 252 253 0
254 255 256 257 258 259 260 261 262 263 264 0
265 266 267 268 269 270 271 272 273 274 275 0
-1 -2 0
-1 -3 0
-1 -4 0
-1 -5 0
-1 -6 0
-1 -7 0
-1 -8 0
-1 -9 0
-1 -10 0
-1 -11 0
-2 -3 0
-2 -4 0
-2 -5 0
-2 -6 0
-2 -7 0
-2 -8 0
-2 -9 0
-2 -10 0
-2 -11 0
-3 -4 0
-3 -5 0
-3 -6 0
-3 -7 0
-3 -8 0
-3 -9 0
-3 -10 0
-3 -11 0
-4 -5 0
-4 -6 0
-4 -7 0
-4 -8 0
-4 -9 0
-4 -10 0
-4 -11 0
-5 -6 0
-5 -7 0
-5 -8 0
-5 -9 0
-5 -10 0
-5 -11 0
-6 -7 0
-6 -8 0
-6 -9 0
-6 -10 0
-6 -11 0
-7 -8 0
-7 -9 0
-7 -10 0
-7 -11 0
-8 -9 0
-8 -10 0
-8 -11 0
-9 -10 0
-9 -11 0
-10 -11 0
-12 -13 0
-12 -14 0
-12 -15 0
-12 -16 0
-12 -17 0
-12 -18 0
-12 -19 0
-12 -20 0
-12 -21 0
-12 -22 0
-13 -14 0
-13 -15 0
-13 -16 0
-13 -17 0
-13 -18 0
-13 -19 0
-13 -20 0
-13 -21 0
-13 -22 0
-14 -15 0
-14 -16 0
-14 -17 0
-14 -18 0
-14 -19 0
-14 -20 0
-14 -21 0
-14 -22 0
-15 -16 0
-15 -17 0
-15 -18 0
-15 -19 0
-15 -20 0
-15 -21 0
-15 -22 0
-16 -17 0
-16 -18 0
-16 -19 0
-16 -20 0
-16 -21 0
-16 -22 0
-17 -18 0
-17 -19 0
-17 -20 0
-17 -21 0
-17 -22 0
-18 -19 0
-18 -20 0
-18 -21 0
-18 -22 0
-19 -20 0
-19 -21 0
-19 -22 0
-20 -21 0
-20 -22 0
-21 -22 0
-23 -24 0
-23 -25 0
-23 -26 0
-23 -27 0
-23 -28 0
-23 -29 0
-23 -30 0
-23 -31 0
-23 -32 0
-23 -33 0
-24 -25 0
-24 -26 0
-24 -27 0
-24 -28 0
-24 -29 0
-24 -30 0
-24 -31 0
-24 -32 0
-24 -33 0
-25 -26 0
-25 -27 0
-25 -28 0
-25 -29 0
-25 -30 0
-25 -31 0
-25 -32 0
-25 -33 0
-26 -27 0
-26 -28 0
-26 -29 0
-26 -30 0
-26 -31 0
-26 -32 0
-26 -33 0
-27 -28 0
-27 -29 0
-27 -30 0
-27 -31 0
-27 -32 0
-27 -33 0
-28 -29 0
-28 -30 0
-28 -31 0
-28 -32 0
-28 -33 0
-29 -30 0
-29 -31 0
-29 -32 0
-29 -33 0
-30 -31 0
-30 -32 0
-30 -33 0
-31 -32 0
-31 -33 0
-32 -33 0
-34 -35 0
-34 -36 0
-34 -37 0
-34 -38 0
-34 -39 0
-34 -40 0
-34 -41 0
-34 -42 0
-34 -43 0
-34 -44 0
-35 -36 0
-35 -37 0
-35 -38 0
-35 -39 0
-35 -40 0
-35 -41 0
-35 -42 0
-35 -43 0
-35 -44 0
-36 -37 0
-36 -38 0
-36 -39 0
-36 -40 0
-36 -41 0
-36 -42 0
-36 -43 0
-36 -44 0
-37 -38 0
-37 -39 0
-37 -40 0
-37 -41 0
-37 -42 0
-37 -43 0
-37 -44 0
-38 -39 0
-38 -40 0
-38 -41 0
-38 -42 0
-38 -43 0
-38 -44 0
-39 -40 0
-39 -41 0
-39 -42 0
-39 -43 0
-39 -44 0
-40 -41 0
-40 -42 0
-40 -43 0
-40 -44 0
-41 -42 0
-41 -43 0
-41 -44 0
-42 -43 0
-42 -44 0
-43 -44 0
-45 -46 0
-45 -47 0
-45 -48 0
-45 -49 0
-45 -50 0
-45 -51 0
-45 -52 0
-45 -53 0
-45 -54 0
-45 -55 0
-46 -47 0
-46 -48 0
-46 -49 0
-46 -50 0
-46 -51 0
-46 -52 0
-46 -53 0
-46 -54 0
-46 -55 0
-47 -48 0
-47 -49 0
-47 -50 0
-47 -51 0
-47 -52 0
-47 -53 0
-47 -54 0
-47 -55 0
-48 -49 0
-48 -50 0
-48 -51 0
-48 -52 0
-48 -53 0
-48 -54 0
-48 -55 0
-49 -50 0
-49 -51 0
-49 -52 0
-49 -53 0
-49 -54 0
-49 -55 0
-50 -51 0
-50 -52 0
-50 -53 0
-50 -54 0
-50 -55 0
-51 -52 0
-51 -53 0
-51 -54 0
-51 -55 0
-52 -53 0
-52 -54 0
-52 -55 0
-53 -54 0
-53 -55 0
-54 -55 0
-56 -57 0
-56 -58 0
-56 -59 0
-56 -60 0
-56 -61 0
-56 -62 0
-56 -63 0
-56 -64 0
-56 -65 0
-56 -66 0
-57 -58 0
-57 -59 0
-57 -60 0
-57 -61 0
-57 -62 0
-57 -63 0
-57 -64 0
-57 -65 0
-57 -66 0
-58 -59 0
-58 -60 0
-58 -61 0
-58 -62 0
-58 -63 0
-58 -64 0
-58 -65 0
-58 -66 0
-59 -60 0
-59 -61 0
-59 -62 0
-59 -63 0
-59 -64 0
-59 -65 0
-59 -66 0
-60 -61 0
-60 -62 0
-60 -63 0
-60 -64 0
-60 -65 0
-60 -66 0
-61 -62 0
-61 -63 0
-61 -64 0
-61 -65 0
-61 -66 0
-62 -63 0
-62 -64 0
-62 -65 0
-62 -66 0
-63 -64 0
-63 -65 0
-63 -66 0
-64 -65 0
-64 -66 0
-65 -66 0
-67 -68 0
-67 -69 0
-67 -70 0
-67 -71 0
-67 -72 0
-67 -73 0
-67 -74 0
-67 -75 0
-67 -76 0
-67 -77 0
-68 -69 0
-68 -70 0
-68 -71 0
-68 -72 0
-68 -73 0
-68 -74 0
-68 -75 0
-68 -76 0
-68 -77 0
-69 -70 0
-69 -71 0
-69 -72 0
-69 -73 0
-69 -74 0
-69 -75 0
-69 -76 0
-69 -77 0
-70 -71 0
-70 -72 0
-70 -73 0
-70 -74 0
-70 -75 0
-70 -76 0
-70 -77 0
-71 -72 0
-71 -73 0
-71 -74 0
-71 -75 0
-71 -76 0
-71 -77 0
-72 -73 0
-72 -74 0
-72 -75 0
-72 -76 0
-72 -77 0
-73 -74 0
-73 -75 0
-73 -76 0
-73 -77 0
-74 -75 0
-74 -76 0
-74 -77 0
-75 -76 0
-75 -77 0
-76 -77 0
-78 -79 0
-78 -80 0
-78 -81 0
-78 -82 0
-78 -83 0
-78 -84 0
-78 -85 0
-78 -86 0
-78 -87 0
-78 -88 0
-79 -80 0
-79 -81 0
-79 -82 0
-79 -83 0
-79 -84 0
-79 -85 0
-79 -86 0
-79 -87 0
-79 -88 0
-80 -81 0
-80 -82 0
-80 -83 0
-80 -84 0
-80 -85 0
-80 -86 0
-80 -87 0
-80 -88 0
-81 -82 0
-81 -83 0
-81 -84 0
-81 -85 0
-81 -86 0
-81 -87 0
-81 -88 0
-82 -83 0
-82 -84 0
-82 -85 0
-82 -86 0
-82 -87 0
-82 -88 0
-83 -84 0
-83 -85 0
-83 -86 0
-83 -87 0
-83 -88 0
-84 -85 0
-84 -86 0
-84 -87 0
-84 -88 0
-85 -86 0
-85 -87 0
-85 -88 0
-86 -87 0
-86 -88 0
-87 -88 0
-89 -90 0
-89 -91 0
-89 -92 0
-89 -93 0
-89 -94 0
-89 -95 0
-89 -96 0
-89 -97 0
-89 -98 0
-89 -99 0
-90 -91 0
-90 -92 0
-90 -93 0
-90 -94 0
-90 -95 0
-90 -96 0
-90 -97 0
-90 -98 0
-90 -99 0
-91 -92 0
-91 -93 0
-91 -94 0
-91 -95 0
-91 -96 0
-91 -97 0
-91 -98 0
-91 -99 0
-92 -93 0
-92 -94 0
-92 -95 0
-92 -96 0
-92 -97 0
-92 -98 0
-92 -99 0
-93 -94 0
-93 -95 0
-93 -96 0
-93 -97 0
-93 -98 0
-93 -99 0
-94 -95 0
-94 -96 0
-94 -97 0
-94 -98 0
-94 -99 0
-95 -96 0
-95 -97 0
-95 -98 0
-95 -99 0
-96 -97 0
-96 -98 0
-96 -99 0
-97 -98 0
-97 -99 0
-98 -99 0
-100 -101 0
-100 -102 0
-100 -103 0
-100 -104 0
-100 -105 0
-100 -106 0
-100 -107 0
-100 -108 0
-100 -109 0
-100 -110 0
-101 -102 0
-101 -103 0
-101 -104 0
-101 -105 0
-101 -106 0
-101 -107 0
-101 -108 0
-101 -109 0
-101 -110 0
-102 -103 0
-102 -104 0
-102 -105 0
-102 -106 0
-102 -107 0
-102 -108 0
-102 -109 0
-102 -110 0
-103 -104 0
-103 -105 0
-103 -106 0
-103 -107 0
-103 -108 0
-103 -109 0
-103 -110 0
-104 -105 0
-104 -106 0
-104 -107 0
-104 -108 0
-104 -109 0
-104 -110 0
-105 -106 0
-105 -107 0
-105 -108 0
-105 -109 0
-105 -110 0
-106 -107 0
-106 -108 0
-106 -109 0
-106 -110 0
-107 -108 0
-107 -109 0
-107 -110 0
-108 -109 0
-108 -110 0
-109 -110 0
-111 -112 0
-111 -113 0
-111 -114 0
-111 -115 0
-111 -116 0
-111 -117 0
-111 -118 0
-111 -119 0
-111 -120 0
-111 -121 0
-112 -113 0
-112 -114 0
-112 -115 0
-112 -116 0
-112 -117 0
-112 -118 0
-112 -119 0
-112 -120 0
-112 -121 0
-113 -114 0
-113 -115 0
-113 -116 0
-113 -117 0
-113 -118 0
-113 -119 0
-113 -120 0
-113 -121 0
-114 -115 0
-114 -116 0
-114 -117 0
-114 -118 0
-114 -119 0
-114 -120 0
-114 -121 0
-115 -116 0
-115 -117 0
-115 -118 0
-115 -119 0
-115 -120 0
-115 -121 0
-116 -117 0
-116 -118 0
-116 -119 0
-116 -120 0
-116 -121 0
-117 -118 0
-117 -119 0
-117 -120 0
-117 -121 0
-118 -119 0
-118 -120 0
-118 -121 0
-119 -120 0
-119 -121 0
-120 -121 0
-122 -123 0
-122 -124 0
-122 -125 0
-122 -126 0
-122 -127 0
-122 -128 0
-122 -129 0
-122 -130 0
-122 -131 0
-122 -132 0
-123 -124 0
-123 -125 0
-123 -126 0
-123 -127 0
-123 -128 0
-123 -129 0
-123 -130 0
-123 -131 0
-123 -132 0
-124 -125 0
-124 -126 0
-124 -127 0
-124 -128 0
-124 -129 0
-124 -130 0
-124 -131 0
-124 -132 0
-125 -126 0
-125 -127 0
-125 -128 0
-125 -129 0
-125 -130 0
-125 -131 0
-125 -132 0
-126 -127 0
-126 -128 0
-126 -129 0
-126 -130 0
-126 -131 0
-126 -132 0
-127 -128 0
-127 -129 0
-127 -130 0
-127 -131 0
-127 -132 0
-128 -129 0
-128 -130 0
-128 -131 0
-128 -132 0
-129 -130 0
-129 -131 0
-129 -132 0
-130 -131 0
-130 -132 0
-131 -132 0
-133 -134 0
-133 -135 0
-133 -136 0
-133 -137 0
-133 -138 0
-133 -139 0
-133 -140 0
-133 -141 0
-133 -142 0
-133 -143 0
-134 -135 0
-134 -136 0
-134 -137 0
-134 -138 0
-134 -139 0
-134 -140 0
-134 -141 0
-134 -142 0
-134 -143 0
-135 -136 0
-135 -137 0
-135 -138 0
-135 -139 0
-135 -140 0
-135 -141 0
-135 -142 0
-135 -143 0
-136 -137 0
-136 -138 0
-136 -139 0
-136 -140 0
-136 -141 0
-136 -142 0
-136 -143 0
-137 -138 0
-137 -139 0
-137 -140 0
-137 -141 0
-137 -142 0
-137 -143 0
-138 -139 0
-138 -140 0
-138 -141 0
-138 -142 0
-138 -143 0
-139 -140 0
-139 -141 0
-139 -142 0
-139 -143 0
-140 -141 0
-140 -142 0
-140 -143 0
-141 -142 0
-141 -143 0
-142 -143 0
-144 -145 0
-144 -146 0
-144 -147 0
-144 -148 0
-144 -149 0
-144 -150 0
-144 -151 0
-144 -152 0
-144 -153 0
-144 -154 0
-145 -146 0
-145 -147 0
-145 -148 0
-145 -149 0
-145 -150 0
-145 -151 0
-145 -152 0
-145 -153 0
-145 -154 0
-146 -147 0
-146 -148 0
-146 -149 0
-146 -150 0
-146 -151 0
-146 -152 0
-146 -153 0
-146 -154 0
-147 -148 0
-147 -149 0
-147 -150 0
-147 -151 0
-147 -152 0
-147 -153 0
-147 -154 0
-148 -149 0
-148 -150 0
-148 -151 0
-148 -152 0
-148 -153 0
-148 -154 0
-149 -150 0
-149 -151 0
-149 -152 0
-149 -153 0
-149 -154 0
-150 -151 0
-150 -152 0
-150 -153 0
-150 -154 0
-151 -152 0
-151 -153 0
-151 -154 0
-152 -153 0
-152 -154 0
-153 -154 0
-155 -156 0
-155 -157 0
-155 -158 0
-155 -159 0
-155 -160 0
-155 -161 0
-155 -162 0
-155 -163 0
-155 -164 0
-155 -165 0
-156 -157 0
-156 -158 0
-156 -159 0
-156 -160 0
-156 -161 0
-156 -162 0
-156 -163 0
-156 -164 0
-156 -165 0
-157 -158 0
-157 -159 0
-157 -160 0
-157 -161 0
-157 -162 0
-157 -163 0
-157 -164 0
-157 -165 0
-158 -159 0
-158 -160 0
-158 -161 0
-158 -162 0
-158 -163 0
-158 -164 0
-158 -165 0
-159 -160 0
-159 -161 0
-159 -162 0
-159 -163 0
-159 -164 0
-159 -165 0
-160 -161 0
-160 -162 0
-160 -163 0
-160 -164 0
-160 -165 0
-161 -162 0
-161 -163 0
-161 -164 0
-161 -165 0
-162 -163 0
-162 -164 0
-162 -165 0
-163 -164 0
-163 -165 0
-164 -165 0
-166 -167 0
-166 -168 0
-166 -169 0
-166 -170 0
-166 -171 0
-166 -172 0
-166 -173 0
-166 -174 0
-166 -175 0
-166 -176 0
-167 -168 0
-167 -169 0
-167 -170 0
-167 -171 0
-167 -172 0
-167 -173 0
-167 -174 0
-167 -175 0
-167 -176 0
-168 -169 0
-168 -170 0
-168 -171 0
-168 -172 0
-168 -173 0
-168 -174 0
-168 -175 0
-168 -176 0
-169 -170 0
-169 -171 0
-169 -172 0
-169 -173 0
-169 -174 0
-169 -175 0
-169 -176 0
-170 -171 0
-170 -172 0
-170 -173 0
-170 -174 0
-170 -175 0
-170 -176 0
-171 -172 0
-171 -173 0
-171 -174 0
-171 -175 0
-171 -176 0
-172 -173 0
-172 -174 0
-172 -175 0
-172 -176 0
-173 -174 0
-173 -175 0
-173 -176 0
-174 -175 0
-174 -176 0
-175 -176 0
-177 -178 0
-177 -179 0
-177 -180 0
-177 -181 0
-177 -182 0
-177 -183 0
-177 -184 0
-177 -185 0
-177 -186 0
-177 -187 0
-178 -179 0
-178 -180 0
-178 -181 0
-178 -182 0
-178 -183 0
-178 -184 0
-178 -185 0
-178 -186 0
-178 -187 0
-179 -180 0
-179 -181 0
-179 -182 0
-179 -183 0
-179 -184 0
-179 -185 0
-179 -186 0
-179 -187 0
-180 -181 0
-180 -182 0
-180 -183 0
-180 -184 0
-180 -185 0
-180 -186 0
-180 -187 0
-181 -182 0
-181 -183 0
-181 -184 0
-181 -185 0
-181 -186 0
-181 -187 0
-182 -183 0
-182 -184 0
-182 -185 0
-182 -186 0
-182 -187 0
-183 -184 0
-183 -185 0
-183 -186 0
-183 -187 0
-184 -185 0
-184 -186 0
-184 -187 0
-185 -186 0
-185 -187 0
-186 -187 0
-188 -189 0
-188 -190 0
-188 -191 0
-188 -192 0
-188 -193 0
-188 -194 0
-188 -195 0
-188 -196 0
-188 -197 0
-188 -198 0
-189 -190 0
-189 -191 0
-189 -192 0
-189 -193 0
-189 -194 0
-189 -195 0
-189 -196 0
-189 -197 0
-189 -198 0
-190 -191 0
-190 -192 0
-190 -193 0
-190 -194 0
-190 -195 0
-190 -196 0
-190 -197 0
-190 -198 0
-191 -192 0
-191 -193 0
-191 -194 0
-191 -195 0
-191 -196 0
-191 -197 0
-191 -198 0
-192 -193 0
-192 -194 0
-192 -195 0
-192 -196 0
-192 -197 0
-192 -198 0
-193 -194 0
-193 -195 0
-193 -196 0
-193 -197 0
-193 -198 0
-194 -195 0
-194 -196 0
-194 -197 0
-194 -198 0
-195 -196 0
-195 -197 0
-195 -198 0
-196 -197 0
-196 -198 0
-197 -198 0
-199 -200 0
-199 -201 0
-199 -202 0
-199 -203 0
-199 -204 0
-199 -205 0
-199 -206 0
-199 -207 0
-199 -208 0
-199 -209 0
-200 -201 0
-200 -202 0
-200 -203 0
-200 -204 0
-200 -205 0
-200 -206 0
-200 -207 0
-200 -208 0
-200 -209 0
-201 -202 0
-201 -203 0
-201 -204 0
-201 -205 0
-201 -206 0
-201 -207 0
-201 -208 0
-201 -209 0
-202 -203 0
-202 -204 0
-202 -205 0
-202 -206 0
-202 -207 0
-202 -208 0
-202 -209 0
-203 -204 0
-203 -205 0
-203 -206 0
-203 -207 0
-203 -208 0
-203 -209 0
-204 -205 0
-204 -206 0
-204 -207 0
-204 -208 0
-204 -209 0
-205 -206 0
-205 -207 0
-205 -208 0
-205 -209 0
-206 -207 0
-206 -208 0
-206 -209 0
-207 -208 0
-207 -209 0
-208 -209 0
-210 -211 0
-210 -212 0
-210 -213 0
-210 -214 0
-210 -215 0
-210 -216 0
-210 -217 0
-210 -218 0
-210 -219 0
-210 -220 0
-211 -212 0
-211 -213 0
-211 -214 0
-211 -215 0
-211 -216 0
-211 -217 0
-211 -218 0
-211 -219 0
-211 -220 0
-212 -213 0
-212 -214 0
-212 -215 0
-212 -216 0
-212 -217 0
-212 -218 0
-212 -219 0
-212 -220 0
-213 -214 0
-213 -215 0
-213 -216 0
-213 -217 0
-213 -218 0
-213 -219 0
-213 -220 0
-214 -215 0
-214 -216 0
-214 -217 0
-214 -218 0
-214 -219 0
-214 -220 0
-215 -216 0
-215 -217 0
-215 -218 0
-215 -219 0
-215 -220 0
-216 -217 0
-216 -218 0
-216 -219 0
-216 -220 0
-217 -218 0
-217 -219 0
-217 -220 0
-218 -219 0
-218 -220 0
-219 -220 0
-221 -222 0
-221 -223 0
-221 -224 0
-221 -225 0
-221 -226 0
-221 -227 0
-221 -228 0
-221 -229 0
-221 -230 0
-221 -231 0
-222 -223 0
-222 -224 0
-222 -225 0
-222 -226 0
-222 -227 0
-222 -228 0
-222 -229 0
-222 -230 0
-222 -231 0
-223 -224 0
-223 -225 0
-223 -226 0
-223 -227 0
-223 -228 0
-223 -229 0
-223 -230 0
-223 -231 0
-224 -225 0
-224 -226 0
-224 -227 0
-224 -228 0
-224 -229 0
-224 -230 0
-224 -231 0
-225 -226 0
-225 -227 0
-225 -228 0
-225 -229 0
-225 -230 0
-225 -231 0
-226 -227 0
-226 -228 0
-226 -229 0
-226 -230 0
-226 -231 0
-227 -228 0
-227 -229 0
-227 -230 0
-227 -231 0
-228 -229 0
-228 -230 0
-228 -231 0
-229 -230 0
-229 -231 0
-230 -231 0
-232 -233 0
-232 -234 0
-232 -235 0
-232 -236 0
-232 -237 0
-232 -238 0
-232 -239 0
-232 -240 0
-232 -241 0
-232 -242 0
-233 -234 0
-233 -235 0
-233 -236 0
-233 -237 0
-233 -238 0
-233 -239 0
-233 -240 0
-233 -241 0
-233 -242 0
-234 -235 0
-234 -236 0
-234 -237 0
-234 -238 0
-234 -239 0
-234 -240 0
-234 -241 0
-234 -242 0
-235 -236 0
-235 -237 0
-235 -238 0
-235 -239 0
-235 -240 0
-235 -241 0
-235 -242 0
-236 -237 0
-236 -238 0
-236 -239 0
-236 -240 0
-236 -241 0
-236 -242 0
-237 -238 0
-237 -239 0
-237 -240 0
-237 -241 0
-237 -242 0
-238 -239 0
-238 -240 0
-238 -241 0
-238 -242 0
-239 -240 0
-239 -241 0
-239 -242 0
-240 -241 0
-240 -242 0
-241 -242 0
-243 -244 0
-243 -245 0
-243 -246 0
-243 -247 0
-243 -248 0
-243 -249 0
-243 -250 0
-243 -251 0
-243 -252 0
-243 -253 0
-244 -245 0
-244 -246 0
-244 -247 0
-244 -248 0
-244 -249 0
-244 -250 0
-244 -251 0
-244 -252 0
-244 -253 0
-245 -246 0
-245 -247 0
-245 -248 0
-245 -249 0
-245 -250 0
-245 -251 0
-245 -252 0
-245 -253 0
-246 -247 0
-246 -248 0
-246 -249 0
-246 -250 0
-246 -251 0
-246 -252 0
-246 -253 0
-247 -248 0
-247 -249 0
-247 -250 0
-247 -251 0
-247 -252 0
-247 -253 0
-248 -249 0
-248 -250 0
-248 -251 0
-248 -252 0
-248 -253 0
-249 -250 0
-249 -251 0
-249 -252 0
-249 -253 0
-250 -251 0
-250 -252 0
-250 -253 0
-251 -252 0
-251 -253 0
-252 -253 0
-254 -255 0
-254 -256 0
-254 -257 0
-254 -258 0
-254 -259 0
-254 -260 0
-254 -261 0
-254 -262 0
-254 -263 0
-254 -264 0
-255 -256 0
-255 -257 0
-255 -258 0
-255 -259 0
-255 -260 0
-255 -261 0
-255 -262 0
-255 -263 0
-255 -264 0
-256 -257 0
-256 -258 0
-256 -259 0
-256 -260 0
-256 -261 0
-256 -262 0
-256 -263 0
-256 -264 0
-257 -258 0
-257 -259 0
-257 -260 0
-257 -261 0
-257 -262 0
-257 -263 0
-257 -264 0
-258 -259 0
-258 -260 0
-258 -261 0
-258 -262 0
-258 -263 0
-258 -264 0
-259 -260 0
-259 -261 0
-259 -262 0
-259 -263 0
-259 -264 0
-260 -261 0
-260 -262 0
-260 -263 0
-260 -264 0
-261 -262 0
-261 -263 0
-261 -264 0
-262 -263 0
-262 -264 0
-263 -264 0
-265 -266 0
-265 -267 0
-265 -268 0
-265 -269 0
-265 -270 0
-265 -271 0
-265 -272 0
-265 -273 0
-265 -274 0
-265 -275 0
-266 -267 0
-266 -268 0
-266 -269 0
-266 -270 0
-266 -271 0
-266 -272 0
-266 -273 0
-266 -274 0
-266 -275 0
-267 -268 0
-267 -269 0
-267 -270 0
-267 -271 0
-267 -272 0
-267 -273 0
-267 -274 0
-267 -275 0
-268 -269 0
-268 -270 0
-268 -271 0
-268 -272 0
-268 -273 0
-268 -274 0
-268 -275 0
-269 -270 0
-269 -271 0
-269 -272 0
-269 -273 0
-269 -274 0
-269 -275 0
-270 -271 0
-270 -272 0
-270 -273 0
-270 -274 0
-270 -275 0
-271 -272 0
-271 -273 0
-271 -274 0
-271 -275 0
-272 -273 0
-272 -274 0
-272 -275 0
-273 -274 0
-273 -275 0
-274 -275 0
-1 -34 0
-2 -35 0
-3 -36 0
-4 -37 0
-5 -38 0
-6 -39 0
-7 -40 0
-8 -41 0
-9 -42 0
-10 -43 0
-11 -44 0
-1 -78 0
-2 -79 0
-3 -80 0
-4 -81 0
-5 -82 0
-6 -83 0
-7 -84 0
-8 -85 0
-9 -86 0
-10 -87 0
-11 -88 0
-1 -89 0
-2 -90 0
-3 -91 0
-4 -92 0
-5 -93 0
-6 -94 0
-7 -95 0
-8 -96 0
-9 -97 0
-10 -98 0
-11 -99 0
-1 -144 0
-2 -145 0
-3 -146 0
-4 -147 0
-5 -148 0
-6 -149 0
-7 -150 0
-8 -151 0
-9 -152 0
-10 -153 0
-11 -154 0
-1 -155 0
-2 -156 0
-3 -157 0
-4 -158 0
-5 -159 0
-6 -160 0
-7 -161 0
-8 -162 0
-9 -163 0
-10 -164 0
-11 -165 0
-1 -166 0
-2 -167 0
-3 -168 0
-4 -169 0
-5 -170 0
-6 -171 0
-7 -172 0
-8 -173 0
-9 -174 0
-10 -175 0
-11 -176 0
-1 -188 0
-2 -189 0
-3 -190 0
-4 -191 0
-5 -192 0
-6 -193 0
-7 -194 0
-8 -195 0
-9 -196 0
-10 -197 0
-11 -198 0
-1 -243 0
-2 -244 0
-3 -245 0
-4 -246 0
-5 -247 0
-6 -248 0
-7 -249 0
-8 -250 0
-9 -251 0
-10 -252 0
-11 -253 0
-1 -254 0
-2 -255 0
-3 -256 0
-4 -257 0
-5 -258 0
-6 -259 0
-7 -260 0
-8 -261 0
-9 -262 0
-10 -263 0
-11 -264 0
-1 -265 0
-2 -266 0
-3 -267 0
-4 -268 0
-5 -269 0
-6 -270 0
-7 -271 0
-8 -272 0
-9 -273 0
-10 -274 0
-11 -275 0
-12 -111 0
-13 -112 0
-14 -113 0
-15 -114 0
-16 -115 0
-17 -116 0
-18 -117 0
-19 -118 0
-20 -119 0
-21 -120 0
-22 -121 0
-12 -177 0
-13 -178 0
-14 -179 0
-15 -180 0
-16 -181 0
-17 -182 0
-18 -183 0
-19 -184 0
-20 -185 0
-21 -186 0
-22 -187 0
-12 -188 0
-13 -189 0
-14 -190 0
-15 -191 0
-16 -192 0
-17 -193 0
-18 -194 0
-19 -195 0
-20 -196 0
-21 -197 0
-22 -198 0
-12 -199 0
-13 -200 0
-14 -201 0
-15 -202 0
-16 -203 0
-17 -204 0
-18 -205 0
-19 -206 0
-20 -207 0
-21 -208 0
-22 -209 0
-12 -210 0
-13 -211 0
-14 -212 0
-15 -213 0
-16 -214 0
-17 -215 0
-18 -216 0
-19 -217 0
-20 -218 0
-21 -219 0
-22 -220 0
-12 -221 0
-13 -222 0
-14 -223 0
-15 -224 0
-16 -225 0
-17 -226 0
-18 -227 0
-19 -228 0
-20 -229 0
-21 -230 0
-22 -231 0
-12 -265 0
-13 -266 0
-14 -267 0
-15 -268 0
-16 -269 0
-17 -270 0
-18 -271 0
-19 -272 0
-20 -273 0
-21 -274 0
-22 -275 0
-23 -56 0
-24 -57 0
-25 -58 0
-26 -59 0
-27 -60 0
-28 -61 0
-29 -62 0
-30 -63 0
-31 -64 0
-32 -65 0
-33 -66 0
-23 -89 0
-24 -90 0
-25 -91 0
-26 -92 0
-27 -93 0
-28 -94 0
-29 -95 0
-30 -96 0
-31 -97 0
-32 -98 0
-33 -99 0
-23 -111 0
-24 -112 0
-25 -113 0
-26 -114 0
-27 -115 0
-28 -116 0
-29 -117 0
-30 -118 0
-31 -119 0
-32 -120 0
-33 -121 0
-23 -133 0
-24 -134 0
-25 -135 0
-26 -136 0
-27 -137 0
-28 -138 0
-29 -139 0
-30 -140 0
-31 -141 0
-32 -142 0
-33 -143 0
-23 -177 0
-24 -178 0
-25 -179 0
-26 -180 0
-27 -181 0
-28 -182 0
-29 -183 0
-30 -184 0
-31 -185 0
-32 -186 0
-33 -187 0
-23 -199 0
-24 -200 0
-25 -201 0
-26 -202 0
-27 -203 0
-28 -204 0
-29 -205 0
-30 -206 0
-31 -207 0
-32 -208 0
-33 -209 0
-23 -221 0
-24 -222 0
-25 -223 0
-26 -224 0
-27 -225 0
-28 -226 0
-29 -227 0
-30 -228 0
-31 -229 0
-32 -230 0
-33 -231 0
-23 -265 0
-24 -266 0
-25 -267 0
-26 -268 0
-27 -269 0
-28 -270 0
-29 -271 0
-30 -272 0
-31 -273 0
-32 -274 0
-33 -275 0
-34 -45 0
-35 -46 0
-36 -47 0
-37 -48 0
-38 -49 0
-39 -50 0
-40 -51 0
-41 -52 0
-42 -53 0
-43 -54 0
-44 -55 0
-34 -67 0
-35 -68 0
-36 -69 0
-37 -70 0
-38 -71 0
-39 -72 0
-40 -73 0
-41 -74 0
-42 -75 0
-43 -76 0
-44 -77 0
-34 -78 0
-35 -79 0
-36 -80 0
-37 -81 0
-38 -82 0
-39 -83 0
-40 -84 0
-41 -85 0
-42 -86 0
-43 -87 0
-44 -88 0
-34 -89 0
-35 -90 0
-36 -91 0
-37 -92 0
-38 -93 0
-39 -94 0
-40 -95 0
-41 -96 0
-42 -97 0
-43 -98 0
-44 -99 0
-34 -111 0
-35 -112 0
-36 -113 0
-37 -114 0
-38 -115 0
-39 -116 0
-40 -117 0
-41 -118 0
-42 -119 0
-43 -120 0
-44 -121 0
-34 -122 0
-35 -123 0
-36 -124 0
-37 -125 0
-38 -126 0
-39 -127 0
-40 -128 0
-41 -129 0
-42 -130 0
-43 -131 0
-44 -132 0
-34 -133 0
-35 -134 0
-36 -135 0
-37 -136 0
-38 -137 0
-39 -138 0
-40 -139 0
-41 -140 0
-42 -141 0
-43 -142 0
-44 -143 0
-34 -155 0
-35 -156 0
-36 -157 0
-37 -158 0
-38 -159 0
-39 -160 0
-40 -161 0
-41 -162 0
-42 -163 0
-43 -164 0
-44 -165 0
-34 -221 0
-35 -222 0
-36 -223 0
-37 -224 0
-38 -225 0
-39 -226 0
-40 -227 0
-41 -228 0
-42 -229 0
-43 -230 0
-44 -231 0
-34 -254 0
-35 -255 0
-36 -256 0
-37 -257 0
-38 -258 0
-39 -259 0
-40 -260 0
-41 -261 0
-42 -262 0
-43 -263 0
-44 -264 0
-34 -265 0
-35 -266 0
-36 -267 0
-37 -268 0
-38 -269 0
-39 -270 0
-40 -271 0
-41 -272 0
-42 -273 0
-43 -274 0
-44 -275 0
-45 -56 0
-46 -57 0
-47 -58 0
-48 -59 0
-49 -60 0
-50 -61 0
-51 -62 0
-52 -63 0
-53 -64 0
-54 -65 0
-55 -66 0
-45 -78 0
-46 -79 0
-47 -80 0
-48 -81 0
-49 -82 0
-50 -83 0
-51 -84 0
-52 -85 0
-53 -86 0
-54 -87 0
-55 -88 0
-45 -89 0
-46 -90 0
-47 -91 0
-48 -92 0
-49 -93 0
-50 -94 0
-51 -95 0
-52 -96 0
-53 -97 0
-54 -98 0
-55 -99 0
-45 -100 0
-46 -101 0
-47 -102 0
-48 -103 0
-49 -104 0
-50 -105 0
-51 -106 0
-52 -107 0
-53 -108 0
-54 -109 0
-55 -110 0
-45 -122 0
-46 -123 0
-47 -124 0
-48 -125 0
-49 -126 0
-50 -127 0
-51 -128 0
-52 -129 0
-53 -130 0
-54 -131 0
-55 -132 0
-45 -155 0
-46 -156 0
-47 -157 0
-48 -158 0
-49 -159 0
-50 -160 0
-51 -161 0
-52 -162 0
-53 -163 0
-54 -164 0
-55 -165 0
-45 -177 0
-46 -178 0
-47 -179 0
-48 -180 0
-49 -181 0
-50 -182 0
-51 -183 0
-52 -184 0
-53 -185 0
-54 -186 0
-55 -187 0
-45 -199 0
-46 -200 0
-47 -201 0
-48 -202 0
-49 -203 0
-50 -204 0
-51 -205 0
-52 -206 0
-53 -207 0
-54 -208 0
-55 -209 0
-45 -210 0
-46 -211 0
-47 -212 0
-48 -213 0
-49 -214 0
-50 -215 0
-51 -216 0
-52 -217 0
-53 -218 0
-54 -219 0
-55 -220 0
-45 -221 0
-46 -222 0
-47 -223 0
-48 -224 0
-49 -225 0
-50 -226 0
-51 -227 0
-52 -228 0
-53 -229 0
-54 -230 0
-55 -231 0
-45 -232 0
-46 -233 0
-47 -234 0
-48 -235 0
-49 -236 0
-50 -237 0
-51 -238 0
-52 -239 0
-53 -240 0
-54 -241 0
-55 -242 0
-56 -67 0
-57 -68 0
-58 -69 0
-59 -70 0
-60 -71 0
-61 -72 0
-62 -73 0
-63 -74 0
-64 -75 0
-65 -76 0
-66 -77 0
-56 -122 0
-57 -123 0
-58 -124 0
-59 -125 0
-60 -126 0
-61 -127 0
-62 -128 0
-63 -129 0
-64 -130 0
-65 -131 0
-66 -132 0
-56 -177 0
-57 -178 0
-58 -179 0
-59 -180 0
-60 -181 0
-61 -182 0
-62 -183 0
-63 -184 0
-64 -185 0
-65 -186 0
-66 -187 0
-56 -188 0
-57 -189 0
-58 -190 0
-59 -191 0
-60 -192 0
-61 -193 0
-62 -194 0
-63 -195 0
-64 -196 0
-65 -197 0
-66 -198 0
-56 -199 0
-57 -200 0
-58 -201 0
-59 -202 0
-60 -203 0
-61 -204 0
-62 -205 0
-63 -206 0
-64 -207 0
-65 -208 0
-66 -209 0
-56 -210 0
-57 -211 0
-58 -212 0
-59 -213 0
-60 -214 0
-61 -215 0
-62 -216 0
-63 -217 0
-64 -218 0
-65 -219 0
-66 -220 0
-67 -100 0
-68 -101 0
-69 -102 0
-70 -103 0
-71 -104 0
-72 -105 0
-73 -106 0
-74 -107 0
-75 -108 0
-76 -109 0
-77 -110 0
-67 -133 0
-68 -134 0
-69 -135 0
-70 -136 0
-71 -137 0
-72 -138 0
-73 -139 0
-74 -140 0
-75 -141 0
-76 -142 0
-77 -143 0
-67 -166 0
-68 -167 0
-69 -168 0
-70 -169 0
-71 -170 0
-72 -171 0
-73 -172 0
-74 -173 0
-75 -174 0
-76 -175 0
-77 -176 0
-67 -188 0
-68 -189 0
-69 -190 0
-70 -191 0
-71 -192 0
-72 -193 0
-73 -194 0
-74 -195 0
-75 -196 0
-76 -197 0
-77 -198 0
-67 -221 0
-68 -222 0
-69 -223 0
-70 -224 0
-71 -225 0
-72 -226 0
-73 -227 0
-74 -228 0
-75 -229 0
-76 -230 0
-77 -231 0
-67 -254 0
-68 -255 0
-69 -256 0
-70 -257 0
-71 -258 0
-72 -259 0
-73 -260 0
-74 -261 0
-75 -262 0
-76 -263 0
-77 -264 0
-78 -111 0
-79 -112 0
-80 -113 0
-81 -114 0
-82 -115 0
-83 -116 0
-84 -117 0
-85 -118 0
-86 -119 0
-87 -120 0
-88 -121 0
-78 -122 0
-79 -123 0
-80 -124 0
-81 -125 0
-82 -126 0
-83 -127 0
-84 -128 0
-85 -129 0
-86 -130 0
-87 -131 0
-88 -132 0
-78 -133 0
-79 -134 0
-80 -135 0
-81 -136 0
-82 -137 0
-83 -138 0
-84 -139 0
-85 -140 0
-86 -141 0
-87 -142 0
-88 -143 0
-78 -155 0
-79 -156 0
-80 -157 0
-81 -158 0
-82 -159 0
-83 -160 0
-84 -161 0
-85 -162 0
-86 -163 0
-87 -164 0
-88 -165 0
-78 -166 0
-79 -167 0
-80 -168 0
-81 -169 0
-82 -170 0
-83 -171 0
-84 -172 0
-85 -173 0
-86 -174 0
-87 -175 0
-88 -176 0
-78 -177 0
-79 -178 0
-80 -179 0
-81 -180 0
-82 -181 0
-83 -182 0
-84 -183 0
-85 -184 0
-86 -185 0
-87 -186 0
-88 -187 0
-78 -188 0
-79 -189 0
-80 -190 0
-81 -191 0
-82 -192 0
-83 -193 0
-84 -194 0
-85 -195 0
-86 -196 0
-87 -197 0
-88 -198 0
-78 -232 0
-79 -233 0
-80 -234 0
-81 -235 0
-82 -236 0
-83 -237 0
-84 -238 0
-85 -239 0
-86 -240 0
-87 -241 0
-88 -242 0
-78 -243 0
-79 -244 0
-80 -245 0
-81 -246 0
-82 -247 0
-83 -248 0
-84 -249 0
-85 -250 0
-86 -251 0
-87 -252 0
-88 -253 0
-78 -254 0
-79 -255 0
-80 -256 0
-81 -257 0
-82 -258 0
-83 -259 0
-84 -260 0
-85 -261 0
-86 -262 0
-87 -263 0
-88 -264 0
-78 -265 0
-79 -266 0
-80 -267 0
-81 -268 0
-82 -269 0
-83 -270 0
-84 -271 0
-85 -272 0
-86 -273 0
-87 -274 0
-88 -275 0
-89 -100 0
-90 -101 0
-91 -102 0
-92 -103 0
-93 -104 0
-94 -105 0
-95 -106 0
-96 -107 0
-97 -108 0
-98 -109 0
-99 -110 0
-89 -133 0
-90 -134 0
-91 -135 0
-92 -136 0
-93 -137 0
-94 -138 0
-95 -139 0
-96 -140 0
-97 -141 0
-98 -142 0
-99 -143 0
-89 -155 0
-90 -156 0
-91 -157 0
-92 -158 0
-93 -159 0
-94 -160 0
-95 -161 0
-96 -162 0
-97 -163 0
-98 -164 0
-99 -165 0
-89 -166 0
-90 -167 0
-91 -168 0
-92 -169 0
-93 -170 0
-94 -171 0
-95 -172 0
-96 -173 0
-97 -174 0
-98 -175 0
-99 -176 0
-89 -188 0
-90 -189 0
-91 -190 0
-92 -191 0
-93 -192 0
-94 -193 0
-95 -194 0
-96 -195 0
-97 -196 0
-98 -197 0
-99 -198 0
-89 -199 0
-90 -200 0
-91 -201 0
-92 -202 0
-93 -203 0
-94 -204 0
-95 -205 0
-96 -206 0
-97 -207 0
-98 -208 0
-99 -209 0
-89 -221 0
-90 -222 0
-91 -223 0
-92 -224 0
-93 -225 0
-94 -226 0
-95 -227 0
-96 -228 0
-97 -229 0
-98 -230 0
-99 -231 0
-89 -243 0
-90 -244 0
-91 -245 0
-92 -246 0
-93 -247 0
-94 -248 0
-95 -249 0
-96 -250 0
-97 -251 0
-98 -252 0
-99 -253 0
-89 -265 0
-90 -266 0
-91 -267 0
-92 -268 0
-93 -269 0
-94 -270 0
-95 -271 0
-96 -272 0
-97 -273 0
-98 -274 0
-99 -275 0
-100 -155 0
-101 -156 0
-102 -157 0
-103 -158 0
-104 -159 0
-105 -160 0
-106 -161 0
-107 -162 0
-108 -163 0
-109 -164 0
-110 -165 0
-100 -199 0
-101 -200 0
-102 -201 0
-103 -202 0
-104 -203 0
-105 -204 0
-106 -205 0
-107 -206 0
-108 -207 0
-109 -208 0
-110 -209 0
-100 -232 0
-101 -233 0
-102 -234 0
-103 -235 0
-104 -236 0
-105 -237 0
-106 -238 0
-107 -239 0
-108 -240 0
-109 -241 0
-110 -242 0
-100 -254 0
-101 -255 0
-102 -256 0
-103 -257 0
-104 -258 0
-105 -259 0
-106 -260 0
-107 -261 0
-108 -262 0
-109 -263 0
-110 -264 0
-100 -265 0
-101 -266 0
-102 -267 0
-103 -268 0
-104 -269 0
-105 -270 0
-106 -271 0
-107 -272 0
-108 -273 0
-109 -274 0
-110 -275 0
-111 -122 0
-112 -123 0
-113 -124 0
-114 -125 0
-115 -126 0
-116 -127 0
-117 -128 0
-118 -129 0
-119 -130 0
-120 -131 0
-121 -132 0
-111 -166 0
-112 -167 0
-113 -168 0
-114 -169 0
-115 -170 0
-116 -171 0
-117 -172 0
-118 -173 0
-119 -174 0
-120 -175 0
-121 -176 0
-111 -177 0
-112 -178 0
-113 -179 0
-114 -180 0
-115 -181 0
-116 -182 0
-117 -183 0
-118 -184 0
-119 -185 0
-120 -186 0
-121 -187 0
-111 -188 0
-112 -189 0
-113 -190 0
-114 -191 0
-115 -192 0
-116 -193 0
-117 -194 0
-118 -195 0
-119 -196 0
-120 -197 0
-121 -198 0
-111 -199 0
-112 -200 0
-113 -201 0
-114 -202 0
-115 -203 0
-116 -204 0
-117 -205 0
-118 -206 0
-119 -207 0
-120 -208 0
-121 -209 0
-111 -232 0
-112 -233 0
-113 -234 0
-114 -235 0
-115 -236 0
-116 -237 0
-117 -238 0
-118 -239 0
-119 -240 0
-120 -241 0
-121 -242 0
-111 -243 0
-112 -244 0
-113 -245 0
-114 -246 0
-115 -247 0
-116 -248 0
-117 -249 0
-118 -250 0
-119 -251 0
-120 -252 0
-121 -253 0
-122 -133 0
-123 -134 0
-124 -135 0
-125 -136 0
-126 -137 0
-127 -138 0
-128 -139 0
-129 -140 0
-130 -141 0
-131 -142 0
-132 -143 0
-122 -144 0
-123 -145 0
-124 -146 0
-125 -147 0
-126 -148 0
-127 -149 0
-128 -150 0
-129 -151 0
-130 -152 0
-131 -153 0
-132 -154 0
-122 -155 0
-123 -156 0
-124 -157 0
-125 -158 0
-126 -159 0
-127 -160 0
-128 -161 0
-129 -162 0
-130 -163 0
-131 -164 0
-132 -165 0
-122 -199 0
-123 -200 0
-124 -201 0
-125 -202 0
-126 -203 0
-127 -204 0
-128 -205 0
-129 -206 0
-130 -207 0
-131 -208 0
-132 -209 0
-122 -210 0
-123 -211 0
-124 -212 0
-125 -213 0
-126 -214 0
-127 -215 0
-128 -216 0
-129 -217 0
-130 -218 0
-131 -219 0
-132 -220 0
-122 -221 0
-123 -222 0
-124 -223 0
-125 -224 0
-126 -225 0
-127 -226 0
-128 -227 0
-129 -228 0
-130 -229 0
-131 -230 0
-132 -231 0
-122 -232 0
-123 -233 0
-124 -234 0
-125 -235 0
-126 -236 0
-127 -237 0
-128 -238 0
-129 -239 0
-130 -240 0
-131 -241 0
-132 -242 0
-122 -243 0
-123 -244 0
-124 -245 0
-125 -246 0
-126 -247 0
-127 -248 0
-128 -249 0
-129 -250 0
-130 -251 0
-131 -252 0
-132 -253 0
-122 -254 0
-123 -255 0
-124 -256 0
-125 -257 0
-126 -258 0
-127 -259 0
-128 -260 0
-129 -261 0
-130 -262 0
-131 -263 0
-132 -264 0
-133 -144 0
-134 -145 0
-135 -146 0
-136 -147 0
-137 -148 0
-138 -149 0
-139 -150 0
-140 -151 0
-141 -152 0
-142 -153 0
-143 -154 0
-133 -210 0
-134 -211 0
-135 -212 0
-136 -213 0
-137 -214 0
-138 -215 0
-139 -216 0
-140 -217 0
-141 -218 0
-142 -219 0
-143 -220 0
-133 -221 0
-134 -222 0
-135 -223 0
-136 -224 0
-137 -225 0
-138 -226 0
-139 -227 0
-140 -228 0
-141 -229 0
-142 -230 0
-143 -231 0
-133 -243 0
-134 -244 0
-135 -245 0
-136 -246 0
-137 -247 0
-138 -248 0
-139 -249 0
-140 -250 0
-141 -251 0
-142 -252 0
-143 -253 0
-133 -265 0
-134 -266 0
-135 -267 0
-136 -268 0
-137 -269 0
-138 -270 0
-139 -271 0
-140 -272 0
-141 -273 0
-142 -274 0
-143 -275 0
-144 -199 0
-145 -200 0
-146 -201 0
-147 -202 0
-148 -203 0
-149 -204 0
-150 -205 0
-151 -206 0
-152 -207 0
-153 -208 0
-154 -209 0
-144 -210 0
-145 -211 0
-146 -212 0
-147 -213 0
-148 -214 0
-149 -215 0
-150 -216 0
-151 -217 0
-152 -218 0
-153 -219 0
-154 -220 0
-144 -265 0
-145 -266 0
-146 -267 0
-147 -268 0
-148 -269 0
-149 -270 0
-150 -271 0
-151 -272 0
-152 -273 0
-153 -274 0
-154 -275 0
-155 -166 0
-156 -167 0
-157 -168 0
-158 -169 0
-159 -170 0
-160 -171 0
-161 -172 0
-162 -173 0
-163 -174 0
-164 -175 0
-165 -176 0
-155 -188 0
-156 -189 0
-157 -190 0
-158 -191 0
-159 -192 0
-160 -193 0
-161 -194 0
-162 -195 0
-163 -196 0
-164 -197 0
-165 -198 0
-155 -199 0
-156 -200 0
-157 -201 0
-158 -202 0
-159 -203 0
-160 -204 0
-161 -205 0
-162 -206 0
-163 -207 0
-164 -208 0
-165 -209 0
-166 -188 0
-167 -189 0
-168 -190 0
-169 -191 0
-170 -192 0
-171 -193 0
-172 -194 0
-173 -195 0
-174 -196 0
-175 -197 0
-176 -198 0
-166 -210 0
-167 -211 0
-168 -212 0
-169 -213 0
-170 -214 0
-171 -215 0
-172 -216 0
-173 -217 0
-174 -218 0
-175 -219 0
-176 -220 0
-166 -254 0
-167 -255 0
-168 -256 0
-169 -257 0
-170 -258 0
-171 -259 0
-172 -260 0
-173 -261 0
-174 -262 0
-175 -263 0
-176 -264 0
-166 -265 0
-167 -266 0
-168 -267 0
-169 -268 0
-170 -269 0
-171 -270 0
-172 -271 0
-173 -272 0
-174 -273 0
-175 -274 0
-176 -275 0
-177 -199 0
-178 -200 0
-179 -201 0
-180 -202 0
-181 -203 0
-182 -204 0
-183 -205 0
-184 -206 0
-185 -207 0
-186 -208 0
-187 -209 0
-177 -243 0
-178 -244 0
-179 -245 0
-180 -246 0
-181 -247 0
-182 -248 0
-183 -249 0
-184 -250 0
-185 -251 0
-186 -252 0
-187 -253 0
-177 -265 0
-178 -266 0
-179 -267 0
-180 -268 0
-181 -269 0
-182 -270 0
-183 -271 0
-184 -272 0
-185 -273 0
-186 -274 0
-187 -275 0
-188 -221 0
-189 -222 0
-190 -223 0
-191 -224 0
-192 -225 0
-193 -226 0
-194 -227 0
-195 -228 0
-196 -229 0
-197 -230 0
-198 -231 0
-188 -243 0
-189 -244 0
-190 -245 0
-191 -246 0
-192 -247 0
-193 -248 0
-194 -249 0
-195 -250 0
-196 -251 0
-197 -252 0
-198 -253 0
-199 -221 0
-200 -222 0
-201 -223 0
-202 -224 0
-203 -225 0
-204 -226 0
-205 -227 0
-206 -228 0
-207 -229 0
-208 -230 0
-209 -231 0
-199 -232 0
-200 -233 0
-201 -234 0
-202 -235 0
-203 -236 0
-204 -237 0
-205 -238 0
-206 -239 0
-207 -240 0
-208 -241 0
-209 -242 0
-199 -243 0
-200 -244 0
-201 -245 0
-202 -246 0
-203 -247 0
-204 -248 0
-205 -249 0
-206 -250 0
-207 -251 0
-208 -252 0
-209 -253 0
-199 -254 0
-200 -255 0
-201 -256 0
-202 -257 0
-203 -258 0
-204 -259 0
-205 -260 0
-206 -261 0
-207 -262 0
-208 -263 0
-209 -264 0
-210 -221 0
-211 -222 0
-212 -223 0
-213 -224 0
-214 -225 0
-215 -226 0
-216 -227 0
-217 -228 0
-218 -229 0
-219 -230 0
-220 -231 0
-210 -232 0
-211 -233 0
-212 -234 0
-213 -235 0
-214 -236 0
-215 -237 0
-216 -238 0
-217 -239 0
-218 -240 0
-219 -241 0
-220 -242 0
-210 -243 0
-211 -244 0
-212 -245 0
-213 -246 0
-214 -247 0
-215 -248 0
-216 -249 0
-217 -250 0
-218 -251 0
-219 -252 0
-220 -253 0
-210 -265 0
-211 -266 0
-212 -267 0
-213 -268 0
-214 -269 0
-215 -270 0
-216 -271 0
-217 -272 0
-218 -273 0
-219 -274 0
-220 -275 0
-221 -232 0
-222 -233 0
-223 -234 0
-224 -235 0
-225 -236 0
-226 -237 0
-227 -238 0
-228 -239 0
-229 -240 0
-230 -241 0
-231 -242 0
-221 -254 0
-222 -255 0
-223 -256 0
-224 -257 0
-225 -258 0
-226 -259 0
-227 -260 0
-228 -261 0
-229 -262 0
-230 -263 0
-231 -264 0
-221 -265 0
-222 -266 0
-223 -267 0
-224 -268 0
-225 -269 0
-226 -270 0
-227 -271 0
-228 -272 0
-229 -273 0
-230 -274 0
-231 -275 0
-232 -254 0
-233 -255 0
-234 -256 0
-235 -257 0
-236 -258 0
-237 -259 0
-238 -260 0
-239 -261 0
-240 -262 0
-241 -263 0
-242 -264 0
-232 -265 0
-233 -266 0
-234 -267 0
-235 -268 0
-236 -269 0
-237 -270 0
-238 -271 0
-239 -272 0
-240 -273 0
-241 -274 0
-242 -275 0
-243 -254 0
-244 -255 0
-245 -256 0
-246 -257 0
-247 -258 0
-248 -259 0
-249 -260 0
-250 -261 0
-251 -262 0
-252 -263 0
-253 -264 0
-243 -265 0
-244 -266 0
-245 -267 0
-246 -268 0
-247 -269 0
-248 -270 0
-249 -271 0
-250 -272 0
-251 -273 0
-252 -274 0
-253 -275 0
